<instance format="XCSP3" type="CSP">
  <variables>
    <var id="x0"> 0 2 9 </var>
    <var id="x1"> 2 6 9 </var>
    <var id="x2"> 0 5 9 13 </var>
    <var id="x3"> 0 5 9 13 </var>
    <var id="x4"> 0 9 12 13 </var>
    <var id="x5"> 2 5 6 12 </var>
    <var id="x6"> 5 9 12 13 </var>
    <var id="x7"> 0 9 14 </var>
    <var id="x8"> 0 1 14 </var>
    <var id="x9"> 1 9 </var>
    <var id="x10"> 0 9 12..14 </var>
    <var id="x11"> 0 9 12 </var>
    <var id="x12"> 11 13 14 </var>
    <var id="x13"> 9 11..14 </var>
    <var id="x14"> 0 2 3 7 14 </var>
    <var id="x15"> 1 3 14 </var>
    <var id="x16"> 0 3 7 14 </var>
    <var id="x17"> 0 2 7 </var>
    <var id="x18"> 0 1 7 8 </var>
    <var id="x19"> 2 7 14 </var>
    <var id="x20"> 8 14 </var>
    <var id="x21"> 0 4 10 14 </var>
    <var id="x22"> 4 12 14 </var>
    <var id="x23"> 0 5 13 14 </var>
    <var id="x24"> 0 4 5 12..14 </var>
    <var id="x25"> 0 10 12 13 </var>
    <var id="x26"> 4 10 14 </var>
    <var id="x27"> 5 12..14 </var>
    <var id="x28"> 2 4 7 14 </var>
    <var id="x29"> 1 4 11 14 </var>
    <var id="x30"> 1 2 4 7 8 </var>
    <var id="x31"> 5 7 14 </var>
    <var id="x32"> 4 5 8 14 </var>
    <var id="x33"> 2 4 5 7 </var>
    <var id="x34"> 1 8 11 </var>
    <var id="x35"> 5 7 11 14 </var>
    <var id="x36"> 3 7 9 14 </var>
    <var id="x37"> 3 7 10 14 </var>
    <var id="x38"> 9..11 13 </var>
    <var id="x39"> 7 11 14 </var>
    <var id="x40"> 10 11 13 14 </var>
    <var id="x41"> 3 7 10 11 14 </var>
    <var id="x42"> 7 9 11 13 14 </var>
    <var id="x43"> 1 3 11 12 </var>
    <var id="x44"> 1 2 7 </var>
    <var id="x45"> 3 5 7 </var>
    <var id="x46"> 5 12 </var>
    <var id="x47"> 1 11 12 </var>
    <var id="x48"> 3 12 </var>
    <var id="x49"> 5 7 11 12 </var>
    <var id="x50"> 1 3 9 14 </var>
    <var id="x51"> 5 8 9 14 </var>
    <var id="x52"> 1 8 9 </var>
    <var id="x53"> 1 5 7..9 </var>
    <var id="x54"> 3 8 9 </var>
    <var id="x55"> 5 8 14 </var>
    <var id="x56"> 1 3 7 14 </var>
    <var id="x57"> 3 4 9 </var>
    <var id="x58"> 1 3 </var>
    <var id="x59"> 1 4 6 8 9 </var>
    <var id="x60"> 1 8 9 13 </var>
    <var id="x61"> 3 8 9 13 </var>
    <var id="x62"> 6 </var>
    <var id="x63"> 6 8 13 </var>
    <var id="x64"> 1 3 4 </var>
    <var id="x65"> 4 12 13 </var>
    <var id="x66"> 4 7 12 </var>
    <var id="x67"> 1 11..13 </var>
    <var id="x68"> 1 7 13 </var>
    <var id="x69"> 7 11 12 </var>
    <var id="x70"> 1 3 4 7 11 </var>
    <var id="x71"> 0 4 </var>
    <var id="x72"> 5 7 12 </var>
    <var id="x73"> 0 5 7 9 </var>
    <var id="x74"> 0 4 5 9 12 </var>
    <var id="x75"> 0 4 5 7 9 12 </var>
    <var id="x76"> 5..7 12 </var>
    <var id="x77"> 5 6 </var>
    <var id="x78"> 2 4 10 14 </var>
    <var id="x79"> 5 10 14 </var>
    <var id="x80"> 4 9 14 </var>
    <var id="x81"> 2 4 8 9 </var>
    <var id="x82"> 4 5 8 9 14 </var>
    <var id="x83"> 4 10 14 </var>
    <var id="x84"> 5 9 14 </var>
    <var id="x85"> 4 9 14 </var>
    <var id="x86"> 10 12 14 </var>
    <var id="x87"> 9 13 14 </var>
    <var id="x88"> 9..13 </var>
    <var id="x89"> 9 13 </var>
    <var id="x90"> 11 12 14 </var>
    <var id="x91"> 4 10 11 14 </var>
    <var id="x92"> 0 10 14 </var>
    <var id="x93"> 7 10 12 14 </var>
    <var id="x94"> 9 12 14 </var>
    <var id="x95"> 0 7 9 12 </var>
    <var id="x96"> 0 7..9 </var>
    <var id="x97"> 0 8..10 12 </var>
    <var id="x98"> 7 10 14 </var>
    <var id="x99"> 0 3 10 14 </var>
    <var id="x100"> 3 5 7 10 14 </var>
    <var id="x101"> 7 9 </var>
    <var id="x102"> 0 5 7 9 </var>
    <var id="x103"> 9 10 </var>
    <var id="x104"> 0 3 9 10 </var>
    <var id="x105"> 5 10 14 </var>
  </variables>
  <constraints>
    <group>
      <allDifferent> %... </allDifferent>
      <args> x0 x1 x2 x3 x4 x5 x6 </args>
      <args> x7 x8 x9 x10 x11 x12 x13 </args>
      <args> x14 x15 x16 x17 x18 x19 x20 </args>
      <args> x21 x22 x23 x24 x25 x26 x27 </args>
      <args> x28 x29 x30 x31 x32 x33 x34 x35 </args>
      <args> x36 x37 x38 x39 x40 x41 x42 </args>
      <args> x43 x44 x45 x46 x47 x48 x49 </args>
      <args> x50 x51 x52 x53 x54 x55 x56 </args>
      <args> x57 x58 x59 x60 x61 x62 x63 </args>
      <args> x64 x65 x66 x67 x68 x69 x70 </args>
      <args> x71 x72 x73 x74 x75 x76 x77 </args>
      <args> x78 x79 x80 x81 x82 x83 x84 </args>
      <args> x85 x86 x87 x88 x89 x90 x91 </args>
      <args> x92 x93 x94 x95 x96 x97 x98 </args>
      <args> x99 x100 x101 x102 x103 x104 x105 </args>
      <args> x0 x7 x14 x28 x36 x57 x85 </args>
      <args> x8 x21 x64 x71 x78 x92 x99 </args>
      <args> x37 x58 x72 x79 x86 x93 x100 </args>
      <args> x15 x22 x29 x43 x50 x80 x94 </args>
      <args> x1 x9 x30 x44 x59 x81 x101 </args>
      <args> x2 x16 x23 x31 x45 x73 x87 </args>
      <args> x10 x24 x32 x46 x51 x65 x74 x82 </args>
      <args> x11 x17 x33 x66 x75 x95 x102 </args>
      <args> x34 x38 x47 x52 x67 x88 x103 </args>
      <args> x3 x18 x53 x60 x68 x89 x96 </args>
      <args> x4 x25 x48 x54 x61 x97 x104 </args>
      <args> x5 x19 x39 x62 x69 x76 x90 </args>
      <args> x12 x20 x40 x55 x63 x77 x105 </args>
      <args> x26 x41 x56 x70 x83 x91 x98 </args>
      <args> x6 x13 x27 x35 x42 x49 x84 </args>
    </group>
  </constraints>
</instance>

